363.47
359.65
355.30
358.27
358.03
358.55
357.42
365.39
358.82
358.64
361.98
356.00
359.38
355.75
361.84
356.54
358.77
354.92
357.82
359.23
355.89
362.17
358.05
358.77
356.26
359.58
358.23
357.94
357.39
356.27
360.62
357.41
362.09
356.73
358.89
357.06
359.91
358.72
356.33
360.12
